
%FILE DATA:	Soccer Computational Problem for MiniZinc Models	%
%AUTHOR:	Jack Wall	%
%CONTACT:  	116397063@umail.ucc.ie			%
%LAST UPDATE:	03/19/2020, 13:39:23						%
%DESCRIPTION: 	165 games played with 45 games left				%


n=15; %number of teams

%Games to play
games=[|3,12|1,4|4,14|7,15|14,10|15,8|10,15|8,14|12,3|14,1|11,9|14,2|13,4|3,11|9,15|10,6|4,12|3,4|6,9|5,11|11,2|5,8|2,7|5,3|15,14|8,13|4,13|10,8|11,5|7,2|10,12|12,14|2,3|11,6|1,2|9,4|15,13|5,12|9,10|7,5|2,8|11,3|6,15|13,9|8,10|];

%Initial points
iPoints=[43,30,27,16,29,20,37,22,32,32,24,32,39,34,29];

%POSITION CONSTRAINTS
% [|teamID, operator, position|...]
% operators index:
%  1 for =  operator
%  2 for >  operator
%  3 for >= operator
%  4 for <  operator
%  5 for <= operator
positionConstraints=[|1,5,1|7,4,3|13,4,4|9,2,3|10,5,5|];